EMC 2.0b1
19
Reciprocal
0.00000 0.00000 0.00000 0.01
-0.02202 0.00000 0.00000 0.01
0.02202 0.00000 0.00000 0.01
0.00015 -0.04376 0.00000 0.01
-0.00015 0.04376 0.00000 0.01
0.00000 0.00000 -0.03272 0.01
0.00000 0.00000 0.03272 0.01
-0.02186 -0.04376 0.00000 0.01
0.02186 0.04376 0.00000 0.01
0.02217 -0.04376 0.00000 0.01
-0.02217 0.04376 0.00000 0.01
-0.02202 0.00000 -0.03272 0.01
0.02202 0.00000 0.03272 0.01
0.02202 0.00000 -0.03272 0.01
-0.02202 0.00000 0.03272 0.01
0.00015 -0.04376 -0.03272 0.01
-0.00015 0.04376 0.03272 0.01
-0.00015 0.04376 -0.03272 0.01
0.00015 -0.04376 0.03272 0.01