EMC 2.0b1
19
Reciprocal
0.00000 0.00000 0.00000 0.01
-0.01699 0.00000 0.00000 0.01
0.01699 0.00000 0.00000 0.01
0.00000 -0.01699 0.00000 0.01
0.00000 0.01699 0.00000 0.01
0.00000 0.00000 -0.01699 0.01
0.00000 0.00000 0.01699 0.01
-0.01699 -0.01699 0.00000 0.01
0.01699 0.01699 0.00000 0.01
0.01699 -0.01699 0.00000 0.01
-0.01699 0.01699 0.00000 0.01
-0.01699 0.00000 -0.01699 0.01
0.01699 0.00000 0.01699 0.01
0.01699 0.00000 -0.01699 0.01
-0.01699 0.00000 0.01699 0.01
0.00000 -0.01699 -0.01699 0.01
0.00000 0.01699 0.01699 0.01
0.00000 0.01699 -0.01699 0.01
0.00000 -0.01699 0.01699 0.01
