! general
SYSTEM = Rubrene-RT-XRAY
ISTART = 0 # From-scratch; job : 0-new 1-cont 2-samecut 
NWRITE = 2 Verbosity

! electronic relaxation
ENCUT = 450.0 # cut-off energy
PREC = Normal # precision : accurate/normal/low 
ISPIN = 1 # 1 - off, 2 - on (non spin-polarized calculation)
ICHARG = 2 # > 10 for non-SC calculation
ALGO = Fast # DAVidson, then RMM-DIIS
EDIFF = 1.0E-8 #
ISMEAR = 0 # gaussian
SIGMA = 0.02

! PAW's
LREAL = .FALSE. # default - Automatic choice of how projection is done
ADDGRID = .TRUE.

! parallelisation
LPLANE = .TRUE.
NPAR = 4 # number of cores

! output
LWAVE = .FALSE. # WAVECAR file
LCHARG = .TRUE. # CHCAR file
LELF = .FALSE.
LVTOT = .FALSE.
