Rubrene
1.0
        7.1840000153         0.0000000000         0.0000000000
        0.0000000000        14.4329996109         0.0000000000
        0.0000000000         0.0000000000        26.8969993591
    C    H
  168  112
Direct
     0.000000000         0.000000000         0.027300000
     0.000000000         0.000000000         0.972700000
     0.500000000         0.500000000         0.972700000
     0.500000000         0.500000000         0.027300000
     0.500000000         0.000000000         0.527300000
     0.500000000         0.000000000         0.472700000
     0.000000000         0.500000000         0.472700000
     0.000000000         0.500000000         0.527300000
     0.142800003         0.048999999         0.052700002
     0.857200027         0.950999975         0.947300017
     0.357199997         0.549000025         0.947300017
     0.642799973         0.451000005         0.052700002
     0.642799973         0.451000005         0.947300017
     0.357199997         0.549000025         0.052700002
     0.857200027         0.950999975         0.052700002
     0.142800003         0.048999999         0.947300017
     0.642799973         0.048999999         0.552699983
     0.357199997         0.950999975         0.447299987
     0.857200027         0.549000025         0.447299987
     0.142800003         0.451000005         0.552699983
     0.142800003         0.451000005         0.447299987
     0.857200027         0.549000025         0.552699983
     0.357199997         0.950999975         0.552699983
     0.642799973         0.048999999         0.447299987
     0.292600006         0.087499999         0.026799999
     0.707399964         0.912500024         0.973200023
     0.207399994         0.587499976         0.973200023
     0.792600036         0.412499994         0.026799999
     0.792600036         0.412499994         0.973200023
     0.207399994         0.587499976         0.026799999
     0.707399964         0.912500024         0.026799999
     0.292600006         0.087499999         0.973200023
     0.792600036         0.087499999         0.526799977
     0.207399994         0.912500024         0.473199993
     0.707399964         0.587499976         0.473199993
     0.292600006         0.412499994         0.526799977
     0.292600006         0.412499994         0.473199993
     0.707399964         0.587499976         0.526799977
     0.207399994         0.912500024         0.526799977
     0.792600036         0.087499999         0.473199993
     0.442999989         0.133599997         0.051500000
     0.557000041         0.866400003         0.948499978
     0.057000011         0.633599997         0.948499978
     0.942999959         0.366400003         0.051500000
     0.942999959         0.366400003         0.948499978
     0.057000011         0.633599997         0.051500000
     0.557000041         0.866400003         0.051500000
     0.442999989         0.133599997         0.948499978
     0.942999959         0.133599997         0.551500022
     0.057000011         0.866400003         0.448500007
     0.557000041         0.633599997         0.448500007
     0.442999989         0.366400003         0.551500022
     0.442999989         0.366400003         0.448500007
     0.557000041         0.633599997         0.551500022
     0.057000011         0.866400003         0.551500022
     0.942999959         0.133599997         0.448500007
     0.583100021         0.174500003         0.026300000
     0.416899979         0.825500011         0.973699987
     0.916899979         0.674499989         0.973699987
     0.083100021         0.325500011         0.026300000
     0.083100021         0.325500011         0.973699987
     0.916899979         0.674499989         0.026300000
     0.416899979         0.825500011         0.026300000
     0.583100021         0.174500003         0.973699987
     0.083100021         0.174500003         0.526300013
     0.916899979         0.825500011         0.473699987
     0.416899979         0.674499989         0.473699987
     0.583100021         0.325500011         0.526300013
     0.583100021         0.325500011         0.473699987
     0.416899979         0.674499989         0.526300013
     0.916899979         0.825500011         0.526300013
     0.083100021         0.174500003         0.473699987
     0.132100001         0.072600000         0.107199997
     0.867900014         0.927399993         0.892799973
     0.367900014         0.572600007         0.892799973
     0.632099986         0.427399993         0.107199997
     0.632099986         0.427399993         0.892799973
     0.367900014         0.572600007         0.107199997
     0.867900014         0.927399993         0.107199997
     0.132100001         0.072600000         0.892799973
     0.632099986         0.072600000         0.607200027
     0.367900014         0.927399993         0.392800003
     0.867900014         0.572600007         0.392800003
     0.132100001         0.427399993         0.607200027
     0.132100001         0.427399993         0.392800003
     0.867900014         0.572600007         0.607200027
     0.367900014         0.927399993         0.607200027
     0.632099986         0.072600000         0.392800003
     0.022200000         0.146400005         0.121900000
     0.977800012         0.853600025         0.878099978
     0.477800012         0.646399975         0.878099978
     0.522199988         0.353599995         0.121900000
     0.522199988         0.353599995         0.878099978
     0.477800012         0.646399975         0.121900000
     0.977800012         0.853600025         0.121900000
     0.022200000         0.146400005         0.878099978
     0.522199988         0.146400005         0.621900022
     0.477800012         0.853600025         0.378100008
     0.977800012         0.646399975         0.378100008
     0.022200000         0.353599995         0.621900022
     0.022200000         0.353599995         0.378100008
     0.977800012         0.646399975         0.621900022
     0.477800012         0.853600025         0.621900022
     0.522199988         0.146400005         0.378100008
     0.022299999         0.176400006         0.171100006
     0.977699995         0.823599994         0.828899980
     0.477699995         0.676400006         0.828899980
     0.522300005         0.323599994         0.171100006
     0.522300005         0.323599994         0.828899980
     0.477699995         0.676400006         0.171100006
     0.977699995         0.823599994         0.171100006
     0.022299999         0.176400006         0.828899980
     0.522300005         0.176400006         0.671100020
     0.477699995         0.823599994         0.328899980
     0.977699995         0.676400006         0.328899980
     0.022299999         0.323599994         0.671100020
     0.022299999         0.323599994         0.328899980
     0.977699995         0.676400006         0.671100020
     0.477699995         0.823599994         0.671100020
     0.522300005         0.176400006         0.328899980
     0.135000005         0.133499995         0.205400005
     0.865000010         0.866500020         0.794600010
     0.365000010         0.633499980         0.794600010
     0.634999990         0.366500020         0.205400005
     0.634999990         0.366500020         0.794600010
     0.365000010         0.633499980         0.205400005
     0.865000010         0.866500020         0.205400005
     0.135000005         0.133499995         0.794600010
     0.634999990         0.133499995         0.705399990
     0.365000010         0.866500020         0.294600010
     0.865000010         0.633499980         0.294600010
     0.135000005         0.366500020         0.705399990
     0.135000005         0.366500020         0.294600010
     0.865000010         0.633499980         0.705399990
     0.365000010         0.866500020         0.705399990
     0.634999990         0.133499995         0.294600010
     0.245100006         0.061000001         0.191000000
     0.754899979         0.939000010         0.809000015
     0.254899979         0.560999990         0.809000015
     0.745100021         0.439000010         0.191000000
     0.745100021         0.439000010         0.809000015
     0.254899979         0.560999990         0.191000000
     0.754899979         0.939000010         0.191000000
     0.245100006         0.061000001         0.809000015
     0.745100021         0.061000001         0.690999985
     0.254899979         0.939000010         0.309000015
     0.754899979         0.560999990         0.309000015
     0.245100006         0.439000010         0.690999985
     0.245100006         0.439000010         0.309000015
     0.754899979         0.560999990         0.690999985
     0.254899979         0.939000010         0.690999985
     0.745100021         0.061000001         0.309000015
     0.244299993         0.030099999         0.142299995
     0.755699992         0.969900012         0.857699990
     0.255699992         0.530099988         0.857699990
     0.744300008         0.469900012         0.142299995
     0.744300008         0.469900012         0.857699990
     0.255699992         0.530099988         0.142299995
     0.755699992         0.969900012         0.142299995
     0.244299993         0.030099999         0.857699990
     0.744300008         0.030099999         0.642300010
     0.255699992         0.969900012         0.357699990
     0.755699992         0.530099988         0.357699990
     0.244299993         0.469900012         0.642300010
     0.244299993         0.469900012         0.357699990
     0.755699992         0.530099988         0.642300010
     0.255699992         0.969900012         0.642300010
     0.744300008         0.030099999         0.357699990
     0.437000006         0.137999997         0.088000000
     0.562999964         0.861999989         0.912000000
     0.062999994         0.638000011         0.912000000
     0.937000036         0.361999989         0.088000000
     0.937000036         0.361999989         0.912000000
     0.062999994         0.638000011         0.088000000
     0.562999964         0.861999989         0.088000000
     0.437000006         0.137999997         0.912000000
     0.937000036         0.137999997         0.588000000
     0.062999994         0.861999989         0.412000000
     0.562999964         0.638000011         0.412000000
     0.437000006         0.361999989         0.588000000
     0.437000006         0.361999989         0.412000000
     0.562999964         0.638000011         0.588000000
     0.062999994         0.861999989         0.588000000
     0.937000036         0.137999997         0.412000000
     0.685999990         0.207000002         0.045000002
     0.314000010         0.792999983         0.954999983
     0.814000010         0.707000017         0.954999983
     0.185999990         0.292999983         0.045000002
     0.185999990         0.292999983         0.954999983
     0.814000010         0.707000017         0.045000002
     0.314000010         0.792999983         0.045000002
     0.685999990         0.207000002         0.954999983
     0.185999990         0.207000002         0.545000017
     0.814000010         0.792999983         0.454999983
     0.314000010         0.707000017         0.454999983
     0.685999990         0.292999983         0.545000017
     0.685999990         0.292999983         0.454999983
     0.314000010         0.707000017         0.545000017
     0.814000010         0.792999983         0.545000017
     0.185999990         0.207000002         0.454999983
     0.942000031         0.178000003         0.097000003
     0.057999998         0.822000027         0.902999997
     0.557999969         0.677999973         0.902999997
     0.442000002         0.321999997         0.097000003
     0.442000002         0.321999997         0.902999997
     0.557999969         0.677999973         0.097000003
     0.057999998         0.822000027         0.097000003
     0.942000031         0.178000003         0.902999997
     0.442000002         0.178000003         0.597000003
     0.557999969         0.822000027         0.402999997
     0.057999998         0.677999973         0.402999997
     0.942000031         0.321999997         0.597000003
     0.942000031         0.321999997         0.402999997
     0.057999998         0.677999973         0.597000003
     0.557999969         0.822000027         0.597000003
     0.442000002         0.178000003         0.402999997
     0.939999998         0.231999993         0.180000007
     0.059999999         0.768000007         0.819999993
     0.560000002         0.731999993         0.819999993
     0.439999998         0.268000007         0.180000007
     0.439999998         0.268000007         0.819999993
     0.560000002         0.731999993         0.180000007
     0.059999999         0.768000007         0.180000007
     0.939999998         0.231999993         0.819999993
     0.439999998         0.231999993         0.680000007
     0.560000002         0.768000007         0.319999993
     0.059999999         0.731999993         0.319999993
     0.939999998         0.268000007         0.680000007
     0.939999998         0.268000007         0.319999993
     0.059999999         0.731999993         0.680000007
     0.560000002         0.768000007         0.680000007
     0.439999998         0.231999993         0.319999993
     0.136999995         0.156000003         0.240999997
     0.863000035         0.843999982         0.759000003
     0.363000005         0.656000018         0.759000003
     0.636999965         0.343999982         0.240999997
     0.636999965         0.343999982         0.759000003
     0.363000005         0.656000018         0.240999997
     0.863000035         0.843999982         0.240999997
     0.136999995         0.156000003         0.759000003
     0.636999965         0.156000003         0.740999997
     0.363000005         0.843999982         0.259000003
     0.863000035         0.656000018         0.259000003
     0.136999995         0.343999982         0.740999997
     0.136999995         0.343999982         0.259000003
     0.863000035         0.656000018         0.740999997
     0.363000005         0.843999982         0.740999997
     0.636999965         0.156000003         0.259000003
     0.331000000         0.028999999         0.215000004
     0.669000030         0.971000016         0.784999967
     0.169000000         0.528999984         0.784999967
     0.830999970         0.471000016         0.215000004
     0.830999970         0.471000016         0.784999967
     0.169000000         0.528999984         0.215000004
     0.669000030         0.971000016         0.215000004
     0.331000000         0.028999999         0.784999967
     0.830999970         0.028999999         0.715000033
     0.169000000         0.971000016         0.284999996
     0.669000030         0.528999984         0.284999996
     0.331000000         0.471000016         0.715000033
     0.331000000         0.471000016         0.284999996
     0.669000030         0.528999984         0.715000033
     0.169000000         0.971000016         0.715000033
     0.830999970         0.028999999         0.284999996
     0.323000014         0.973999977         0.131999999
     0.676999986         0.026000001         0.868000031
     0.176999986         0.474000007         0.868000031
     0.823000014         0.526000023         0.131999999
     0.823000014         0.526000023         0.868000031
     0.176999986         0.474000007         0.131999999
     0.676999986         0.026000001         0.131999999
     0.323000014         0.973999977         0.868000031
     0.823000014         0.973999977         0.631999969
     0.176999986         0.026000001         0.368000001
     0.676999986         0.474000007         0.368000001
     0.323000014         0.526000023         0.631999969
     0.323000014         0.526000023         0.368000001
     0.676999986         0.474000007         0.631999969
     0.176999986         0.026000001         0.631999969
     0.823000014         0.973999977         0.368000001
