Automatic mesh
0              ! number of k-points = 0 ->automatic generation scheme 
G              ! generate a Gamma centered grid
8 8 4
