C22 H14
1.0
        7.9000000954         0.0000000000         0.0000000000
        0.4438231485         6.0437256986         0.0000000000
       -6.1525678101        -2.8584031208        14.5015705449
    C    H
   44   28
Direct
     0.148399994         0.018300001         0.407099992
     0.851599991         0.981700003         0.592900038
     0.984799981         0.736600041         0.278600007
     0.015200000         0.263399988         0.721400023
     0.051899999         0.819999993         0.370599985
     0.948099971         0.180000007         0.629400015
     0.170699999         0.136099994         0.349099994
     0.829299986         0.863900006         0.650900006
     0.103000000         0.060400002         0.250800014
     0.897000015         0.939599991         0.749199986
     0.127399996         0.165000007         0.189400002
     0.872600019         0.834999979         0.810599983
     0.057200000         0.095100001         0.094999999
     0.942799985         0.904900014         0.904999971
     0.092500001         0.209500000         0.033500001
     0.907500029         0.790499985         0.966499984
     0.977299988         0.877300024         0.056699999
     0.022700001         0.122699998         0.943300009
     0.945999980         0.767499983         0.122500002
     0.054000001         0.232500002         0.877499998
     0.015000000         0.848399997         0.214900002
     0.985000014         0.151600003         0.785099983
     0.562700033         0.573300004         0.401400000
     0.437299997         0.426699996         0.598600030
     0.503499985         0.680500031         0.328599989
     0.496499985         0.319499999         0.671400011
     0.521000028         0.587599993         0.243399993
     0.479000002         0.412400007         0.756600022
     0.458199978         0.700999975         0.168599993
     0.541800022         0.298999995         0.831400037
     0.481000006         0.606199980         0.084600002
     0.518999994         0.393799990         0.915400028
     0.423099995         0.713800013         0.010000000
     0.576900005         0.286199987         0.990000010
     0.562200010         0.379400015         0.075400002
     0.437799990         0.620599985         0.924600005
     0.610300004         0.274299979         0.148300007
     0.389699996         0.725700021         0.851700008
     0.606099963         0.365199983         0.234200001
     0.393900007         0.634800017         0.765799999
     0.654900014         0.257000029         0.309399992
     0.345099986         0.742999971         0.690600038
     0.649600029         0.348699987         0.392500013
     0.350400001         0.651300013         0.607499957
     0.202000007         0.086999997         0.481999993
     0.797999978         0.912999988         0.518000007
     0.915000021         0.573000014         0.250999987
     0.085000001         0.426999986         0.749000013
     0.033000000         0.727999985         0.419999987
     0.967000008         0.272000015         0.580000043
     0.246000007         0.294000000         0.370000005
     0.754000008         0.705999970         0.629999995
     0.202000007         0.321000010         0.217999995
     0.797999978         0.679000020         0.782000005
     0.162000000         0.361999989         0.061000001
     0.838000000         0.638000011         0.939000010
     0.878000021         0.605000019         0.097999997
     0.122000001         0.395000011         0.902000010
     0.552999973         0.661000013         0.474999994
     0.446999997         0.338999987         0.524999976
     0.447000027         0.852999985         0.335000008
     0.552999973         0.147000000         0.664999962
     0.401000023         0.873000026         0.178000003
     0.598999977         0.127000004         0.822000027
     0.361999989         0.887000024         0.020000000
     0.638000011         0.112999998         0.980000019
     0.672999978         0.103999972         0.142000005
     0.326999992         0.896000028         0.857999980
     0.717999995         0.088000000         0.303999990
     0.282000005         0.912000000         0.695999980
     0.699999988         0.264999986         0.453000009
     0.300000012         0.735000014         0.546999991
